#insiemi
set J := 1 2 3 4 5 6;
set D := x y z;
set R= uno due tre quattro cinque sei;

#parametri
param s :=
[1, *, *]: uno due tre quattro cinque sei:=
	x  345 345 257 257 95 95
	y 257 95 345 95 257 345
	z 95 257 95 345 345 257
	
[2, *, *]: uno due tre quattro cinque sei:=
	x  345 345 257 257 95 95
	y 257 95 345 95 257 345
	z 95 257 95 345 345 257
	
[3, *, *]: uno due tre quattro cinque sei:=
	x	 485 485 417 417 318 318
	y  417 318 485 318 417 485
	z  318 417 318 485 485 417
	
[4, *, *]: uno due tre quattro cinque sei:=
	x	 485 485 417 417 318 318
	y  417 318 485 318 417 485
	z  318 417 318 485 485 417
	
[5, *, *]: uno due tre quattro cinque sei:=
	x	499 499 191 191 95 95
	y 191 95 499 95 191 499 
	z 95 191 95 499 499 119
	

[6, *, *]: uno due tre quattro cinque sei:=
	x	  162 162 141 141 115 115 
	y     141 115 162 115 141 162
	z    115 141 115 162  162 141
;

param pu :=
1 1
2 1 
3 1
4 1
5 1
6 1
;

param po :=
1 24 
2 5
3 8
4 9
5 20 
6 22
;

param S :=
x 536
y 1036
z 202

;

param BigM:= 10000000000;